p cnf 800 582
c p distribution  0.875 0.125
c p distribution  0.875 0.125
c p distribution  0.875 0.125
c p distribution  0.875 0.125
c p distribution  0.875 0.125
c p distribution  0.875 0.125
c p distribution  0.875 0.125
c p distribution  0.875 0.125
c p distribution  0.875 0.125
c p distribution  0.875 0.125
c p distribution  0.875 0.125
c p distribution  0.875 0.125
c p distribution  0.875 0.125
c p distribution  0.875 0.125
c p distribution  0.875 0.125
c p distribution  0.875 0.125
c p distribution  0.875 0.125
c p distribution  0.875 0.125
c p distribution  0.875 0.125
c p distribution  0.875 0.125
c p distribution  0.875 0.125
c p distribution  0.875 0.125
c p distribution  0.875 0.125
c p distribution  0.875 0.125
c p distribution  0.875 0.125
c p distribution  0.875 0.125
c p distribution  0.875 0.125
c p distribution  0.875 0.125
c p distribution  0.875 0.125
c p distribution  0.875 0.125
c p distribution  0.875 0.125
c p distribution  0.875 0.125
c p distribution  0.875 0.125
c p distribution  0.875 0.125
c p distribution  0.875 0.125
c p distribution  0.875 0.125
c p distribution  0.875 0.125
c p distribution  0.875 0.125
c p distribution  0.875 0.125
c p distribution  0.875 0.125
c p distribution  0.875 0.125
c p distribution  0.875 0.125
c p distribution  0.875 0.125
c p distribution  0.875 0.125
c p distribution  0.875 0.125
c p distribution  0.875 0.125
c p distribution  0.875 0.125
c p distribution  0.875 0.125
c p distribution  0.875 0.125
c p distribution  0.875 0.125
c p distribution  0.875 0.125
c p distribution  0.875 0.125
c p distribution  0.875 0.125
c p distribution  0.875 0.125
c p distribution  0.875 0.125
c p distribution  0.875 0.125
c p distribution  0.875 0.125
c p distribution  0.875 0.125
c p distribution  0.875 0.125
c p distribution  0.875 0.125
c p distribution  0.875 0.125
c p distribution  0.875 0.125
c p distribution  0.875 0.125
c p distribution  0.875 0.125
c p distribution  0.875 0.125
c p distribution  0.875 0.125
c p distribution  0.875 0.125
c p distribution  0.875 0.125
c p distribution  0.875 0.125
c p distribution  0.875 0.125
c p distribution  0.875 0.125
c p distribution  0.875 0.125
c p distribution  0.875 0.125
c p distribution  0.875 0.125
c p distribution  0.875 0.125
c p distribution  0.875 0.125
c p distribution  0.875 0.125
c p distribution  0.875 0.125
c p distribution  0.875 0.125
c p distribution  0.875 0.125
c p distribution  0.875 0.125
c p distribution  0.875 0.125
c p distribution  0.875 0.125
c p distribution  0.875 0.125
c p distribution  0.875 0.125
c p distribution  0.875 0.125
c p distribution  0.875 0.125
c p distribution  0.875 0.125
c p distribution  0.875 0.125
c p distribution  0.875 0.125
c p distribution  0.875 0.125
c p distribution  0.875 0.125
c p distribution  0.875 0.125
c p distribution  0.875 0.125
c p distribution  0.875 0.125
c p distribution  0.875 0.125
c p distribution  0.875 0.125
c p distribution  0.875 0.125
c p distribution  0.875 0.125
c p distribution  0.875 0.125
c p distribution  0.875 0.125
c p distribution  0.875 0.125
c p distribution  0.875 0.125
c p distribution  0.875 0.125
c p distribution  0.875 0.125
c p distribution  0.875 0.125
c p distribution  0.875 0.125
c p distribution  0.875 0.125
c p distribution  0.875 0.125
c p distribution  0.875 0.125
c p distribution  0.875 0.125
c p distribution  0.875 0.125
c p distribution  0.875 0.125
c p distribution  0.875 0.125
c p distribution  0.875 0.125
c p distribution  0.875 0.125
c p distribution  0.875 0.125
c p distribution  0.875 0.125
c p distribution  0.875 0.125
c p distribution  0.875 0.125
c p distribution  0.875 0.125
c p distribution  0.875 0.125
c p distribution  0.875 0.125
c p distribution  0.875 0.125
c p distribution  0.875 0.125
c p distribution  0.875 0.125
c p distribution  0.875 0.125
c p distribution  0.875 0.125
c p distribution  0.875 0.125
c p distribution  0.875 0.125
c p distribution  0.875 0.125
c p distribution  0.875 0.125
c p distribution  0.875 0.125
c p distribution  0.875 0.125
c p distribution  0.875 0.125
c p distribution  0.875 0.125
c p distribution  0.875 0.125
c p distribution  0.875 0.125
c p distribution  0.875 0.125
c p distribution  0.875 0.125
c p distribution  0.875 0.125
c p distribution  0.875 0.125
c p distribution  0.875 0.125
c p distribution  0.875 0.125
c p distribution  0.875 0.125
c p distribution  0.875 0.125
c p distribution  0.875 0.125
c p distribution  0.875 0.125
c p distribution  0.875 0.125
c p distribution  0.875 0.125
c p distribution  0.875 0.125
c p distribution  0.875 0.125
c p distribution  0.875 0.125
c p distribution  0.875 0.125
c p distribution  0.875 0.125
c p distribution  0.875 0.125
c p distribution  0.875 0.125
c p distribution  0.875 0.125
c p distribution  0.875 0.125
c p distribution  0.875 0.125
c p distribution  0.875 0.125
c p distribution  0.875 0.125
c p distribution  0.875 0.125
c p distribution  0.875 0.125
c p distribution  0.875 0.125
c p distribution  0.875 0.125
c p distribution  0.875 0.125
c p distribution  0.875 0.125
c p distribution  0.875 0.125
c p distribution  0.875 0.125
c p distribution  0.875 0.125
c p distribution  0.875 0.125
c p distribution  0.875 0.125
c p distribution  0.875 0.125
c p distribution  0.875 0.125
c p distribution  0.875 0.125
c p distribution  0.875 0.125
c p distribution  0.875 0.125
c p distribution  0.875 0.125
c p distribution  0.875 0.125
c p distribution  0.875 0.125
c p distribution  0.875 0.125
c p distribution  0.875 0.125
c p distribution  0.875 0.125
c p distribution  0.875 0.125
c p distribution  0.875 0.125
c p distribution  0.875 0.125
c p distribution  0.875 0.125
c p distribution  0.875 0.125
c p distribution  0.875 0.125
c p distribution  0.875 0.125
c p distribution  0.875 0.125
c p distribution  0.875 0.125
c p distribution  0.875 0.125
c p distribution  0.875 0.125
c p distribution  0.875 0.125
c p distribution  0.875 0.125
c p distribution  0.875 0.125
c p distribution  0.875 0.125
c p distribution  0.875 0.125
c p distribution  0.875 0.125
c p distribution  0.875 0.125
c p distribution  0.875 0.125
c p distribution  0.875 0.125
c p distribution  0.875 0.125
c p distribution  0.875 0.125
c p distribution  0.875 0.125
c p distribution  0.875 0.125
c p distribution  0.875 0.125
c p distribution  0.875 0.125
c p distribution  0.875 0.125
c p distribution  0.875 0.125
c p distribution  0.875 0.125
c p distribution  0.875 0.125
c p distribution  0.875 0.125
c p distribution  0.875 0.125
c p distribution  0.875 0.125
c p distribution  0.875 0.125
c p distribution  0.875 0.125
c p distribution  0.875 0.125
c p distribution  0.875 0.125
c p distribution  0.875 0.125
c p distribution  0.875 0.125
c p distribution  0.875 0.125
c p distribution  0.875 0.125
c p distribution  0.875 0.125
c p distribution  0.875 0.125
c p distribution  0.875 0.125
c p distribution  0.875 0.125
c p distribution  0.875 0.125
c p distribution  0.875 0.125
c p distribution  0.875 0.125
c p distribution  0.875 0.125
c p distribution  0.875 0.125
c p distribution  0.875 0.125
c p distribution  0.875 0.125
c p distribution  0.875 0.125
c p distribution  0.875 0.125
c p distribution  0.875 0.125
c p distribution  0.875 0.125
c p distribution  0.875 0.125
c p distribution  0.875 0.125
c p distribution  0.875 0.125
c p distribution  0.875 0.125
c p distribution  0.875 0.125
c p distribution  0.875 0.125
c p distribution  0.875 0.125
c p distribution  0.875 0.125
c p distribution  0.875 0.125
c p distribution  0.875 0.125
c p distribution  0.875 0.125
c p distribution  0.875 0.125
c p distribution  0.875 0.125
c p distribution  0.875 0.125
c p distribution  0.875 0.125
c p distribution  0.875 0.125
c p distribution  0.875 0.125
c p distribution  0.875 0.125
c p distribution  0.875 0.125
c p distribution  0.875 0.125
c p distribution  0.875 0.125
c p distribution  0.875 0.125
c p distribution  0.875 0.125
c p distribution  0.875 0.125
c p distribution  0.875 0.125
c p distribution  0.875 0.125
c p distribution  0.875 0.125
c p distribution  0.875 0.125
c p distribution  0.875 0.125
c p distribution  0.875 0.125
c p distribution  0.875 0.125
c p distribution  0.875 0.125
c p distribution  0.875 0.125
c p distribution  0.875 0.125
c p distribution  0.875 0.125
c p distribution  0.875 0.125
c p distribution  0.875 0.125
c p distribution  0.875 0.125
c p distribution  0.875 0.125
c p distribution  0.875 0.125
c p distribution  0.875 0.125
c p distribution  0.875 0.125
c p distribution  0.875 0.125
c p distribution  0.875 0.125
c p distribution  0.875 0.125
c p distribution  0.875 0.125
c p distribution  0.875 0.125
c p distribution  0.875 0.125
c p distribution  0.875 0.125
c p distribution  0.875 0.125
728 0
-764 0
775 -747 -1 0
747 -775 -1 0
793 -646 -3 0
646 -793 -3 0
770 -732 -5 0
732 -770 -5 0
744 -742 -7 0
742 -744 -7 0
761 -673 -9 0
673 -761 -9 0
636 -625 -11 0
625 -636 -11 0
734 -732 -13 0
732 -734 -13 0
797 -596 -15 0
596 -797 -15 0
662 -750 -17 0
750 -662 -17 0
736 -641 -19 0
641 -736 -19 0
792 -668 -21 0
668 -792 -21 0
630 -590 -23 0
590 -630 -23 0
793 -676 -25 0
676 -793 -25 0
644 -796 -27 0
796 -644 -27 0
613 -690 -29 0
690 -613 -29 0
723 -684 -31 0
684 -723 -31 0
609 -639 -33 0
639 -609 -33 0
681 -582 -35 0
582 -681 -35 0
796 -623 -37 0
623 -796 -37 0
641 -667 -39 0
667 -641 -39 0
651 -691 -41 0
691 -651 -41 0
790 -679 -43 0
679 -790 -43 0
581 -585 -45 0
585 -581 -45 0
647 -734 -47 0
734 -647 -47 0
792 -668 -49 0
668 -792 -49 0
725 -637 -51 0
637 -725 -51 0
622 -610 -53 0
610 -622 -53 0
664 -699 -55 0
699 -664 -55 0
728 -763 -57 0
763 -728 -57 0
684 -648 -59 0
648 -684 -59 0
721 -649 -61 0
649 -721 -61 0
678 -606 -63 0
606 -678 -63 0
712 -731 -65 0
731 -712 -65 0
659 -713 -67 0
713 -659 -67 0
779 -643 -69 0
643 -779 -69 0
757 -602 -71 0
602 -757 -71 0
592 -756 -73 0
756 -592 -73 0
782 -584 -75 0
584 -782 -75 0
741 -733 -77 0
733 -741 -77 0
670 -624 -79 0
624 -670 -79 0
792 -692 -81 0
692 -792 -81 0
687 -709 -83 0
709 -687 -83 0
732 -737 -85 0
737 -732 -85 0
659 -674 -87 0
674 -659 -87 0
741 -733 -89 0
733 -741 -89 0
785 -750 -91 0
750 -785 -91 0
594 -628 -93 0
628 -594 -93 0
787 -760 -95 0
760 -787 -95 0
593 -741 -97 0
741 -593 -97 0
632 -751 -99 0
751 -632 -99 0
591 -660 -101 0
660 -591 -101 0
640 -680 -103 0
680 -640 -103 0
800 -592 -105 0
592 -800 -105 0
657 -631 -107 0
631 -657 -107 0
763 -699 -109 0
699 -763 -109 0
734 -732 -111 0
732 -734 -111 0
593 -730 -113 0
730 -593 -113 0
722 -664 -115 0
664 -722 -115 0
587 -799 -117 0
799 -587 -117 0
589 -605 -119 0
605 -589 -119 0
607 -588 -121 0
588 -607 -121 0
692 -699 -123 0
699 -692 -123 0
634 -799 -125 0
799 -634 -125 0
645 -627 -127 0
627 -645 -127 0
590 -767 -129 0
767 -590 -129 0
596 -602 -131 0
602 -596 -131 0
719 -779 -133 0
779 -719 -133 0
743 -794 -135 0
794 -743 -135 0
591 -626 -137 0
626 -591 -137 0
593 -608 -139 0
608 -593 -139 0
591 -735 -141 0
735 -591 -141 0
793 -672 -143 0
672 -793 -143 0
692 -677 -145 0
677 -692 -145 0
591 -693 -147 0
693 -591 -147 0
768 -780 -149 0
780 -768 -149 0
715 -798 -151 0
798 -715 -151 0
635 -659 -153 0
659 -635 -153 0
705 -606 -155 0
606 -705 -155 0
652 -633 -157 0
633 -652 -157 0
691 -734 -159 0
734 -691 -159 0
776 -623 -161 0
623 -776 -161 0
743 -795 -163 0
795 -743 -163 0
723 -759 -165 0
759 -723 -165 0
781 -701 -167 0
701 -781 -167 0
772 -646 -169 0
646 -772 -169 0
637 -674 -171 0
674 -637 -171 0
722 -664 -173 0
664 -722 -173 0
739 -776 -175 0
776 -739 -175 0
676 -671 -177 0
671 -676 -177 0
636 -767 -179 0
767 -636 -179 0
777 -601 -181 0
601 -777 -181 0
704 -597 -183 0
597 -704 -183 0
784 -772 -185 0
772 -784 -185 0
653 -737 -187 0
737 -653 -187 0
786 -684 -189 0
684 -786 -189 0
771 -666 -191 0
666 -771 -191 0
797 -795 -193 0
795 -797 -193 0
695 -714 -195 0
714 -695 -195 0
616 -628 -197 0
628 -616 -197 0
613 -653 -199 0
653 -613 -199 0
697 -773 -201 0
773 -697 -201 0
595 -791 -203 0
791 -595 -203 0
791 -775 -205 0
775 -791 -205 0
743 -795 -207 0
795 -743 -207 0
615 -724 -209 0
724 -615 -209 0
682 -604 -211 0
604 -682 -211 0
621 -618 -213 0
618 -621 -213 0
689 -710 -215 0
710 -689 -215 0
719 -800 -217 0
800 -719 -217 0
633 -613 -219 0
613 -633 -219 0
720 -598 -221 0
598 -720 -221 0
633 -613 -223 0
613 -633 -223 0
638 -609 -225 0
609 -638 -225 0
715 -595 -227 0
595 -715 -227 0
595 -620 -229 0
620 -595 -229 0
721 -666 -231 0
666 -721 -231 0
729 -770 -233 0
770 -729 -233 0
609 -738 -235 0
738 -609 -235 0
766 -707 -237 0
707 -766 -237 0
777 -726 -239 0
726 -777 -239 0
697 -709 -241 0
709 -697 -241 0
640 -680 -243 0
680 -640 -243 0
763 -677 -245 0
677 -763 -245 0
767 -600 -247 0
600 -767 -247 0
732 -774 -249 0
774 -732 -249 0
632 -614 -251 0
614 -632 -251 0
702 -610 -253 0
610 -702 -253 0
789 -725 -255 0
725 -789 -255 0
672 -708 -257 0
708 -672 -257 0
668 -603 -259 0
603 -668 -259 0
581 -587 -261 0
587 -581 -261 0
647 -734 -263 0
734 -647 -263 0
716 -620 -265 0
620 -716 -265 0
732 -770 -267 0
770 -732 -267 0
664 -699 -269 0
699 -664 -269 0
775 -664 -271 0
664 -775 -271 0
791 -775 -273 0
775 -791 -273 0
737 -690 -275 0
690 -737 -275 0
616 -603 -277 0
603 -616 -277 0
585 -709 -279 0
709 -585 -279 0
605 -595 -281 0
595 -605 -281 0
688 -615 -283 0
615 -688 -283 0
650 -782 -285 0
782 -650 -285 0
642 -727 -287 0
727 -642 -287 0
778 -668 -289 0
668 -778 -289 0
797 -629 -291 0
629 -797 -291 0
753 -631 -293 0
631 -753 -293 0
797 -795 -295 0
795 -797 -295 0
762 -617 -297 0
617 -762 -297 0
701 -706 -299 0
706 -701 -299 0
767 -656 -301 0
656 -767 -301 0
693 -665 -303 0
665 -693 -303 0
594 -671 -305 0
671 -594 -305 0
695 -762 -307 0
762 -695 -307 0
661 -765 -309 0
765 -661 -309 0
595 -614 -311 0
614 -595 -311 0
585 -587 -313 0
587 -585 -313 0
710 -758 -315 0
758 -710 -315 0
797 -757 -317 0
757 -797 -317 0
640 -703 -319 0
703 -640 -319 0
647 -681 -321 0
681 -647 -321 0
797 -755 -323 0
755 -797 -323 0
617 -766 -325 0
766 -617 -325 0
611 -722 -327 0
722 -611 -327 0
785 -699 -329 0
699 -785 -329 0
581 -587 -331 0
587 -581 -331 0
647 -724 -333 0
724 -647 -333 0
651 -682 -335 0
682 -651 -335 0
705 -678 -337 0
678 -705 -337 0
639 -770 -339 0
770 -639 -339 0
793 -742 -341 0
742 -793 -341 0
689 -758 -343 0
758 -689 -343 0
726 -751 -345 0
751 -726 -345 0
762 -714 -347 0
714 -762 -347 0
658 -733 -349 0
733 -658 -349 0
683 -699 -351 0
699 -683 -351 0
780 -592 -353 0
592 -780 -353 0
766 -695 -355 0
695 -766 -355 0
759 -702 -357 0
702 -759 -357 0
667 -761 -359 0
761 -667 -359 0
793 -749 -361 0
749 -793 -361 0
686 -610 -363 0
610 -686 -363 0
725 -745 -365 0
745 -725 -365 0
644 -717 -367 0
717 -644 -367 0
644 -623 -369 0
623 -644 -369 0
658 -608 -371 0
608 -658 -371 0
644 -678 -373 0
678 -644 -373 0
724 -698 -375 0
698 -724 -375 0
586 -671 -377 0
671 -586 -377 0
653 -729 -379 0
729 -653 -379 0
651 -732 -381 0
732 -651 -381 0
590 -691 -383 0
691 -590 -383 0
650 -584 -385 0
584 -650 -385 0
709 -646 -387 0
646 -709 -387 0
621 -625 -389 0
625 -621 -389 0
682 -604 -391 0
604 -682 -391 0
727 -718 -393 0
718 -727 -393 0
768 -591 -395 0
591 -768 -395 0
667 -789 -397 0
789 -667 -397 0
664 -597 -399 0
597 -664 -399 0
598 -656 -401 0
656 -598 -401 0
638 -618 -403 0
618 -638 -403 0
595 -612 -405 0
612 -595 -405 0
663 -738 -407 0
738 -663 -407 0
689 -619 -409 0
619 -689 -409 0
598 -720 -411 0
720 -598 -411 0
770 -752 -413 0
752 -770 -413 0
591 -660 -415 0
660 -591 -415 0
687 -615 -417 0
615 -687 -417 0
685 -756 -419 0
756 -685 -419 0
636 -760 -421 0
760 -636 -421 0
793 -700 -423 0
700 -793 -423 0
588 -634 -425 0
634 -588 -425 0
716 -718 -427 0
718 -716 -427 0
778 -603 -429 0
603 -778 -429 0
620 -696 -431 0
696 -620 -431 0
611 -753 -433 0
753 -611 -433 0
616 -748 -435 0
748 -616 -435 0
670 -757 -437 0
757 -670 -437 0
646 -669 -439 0
669 -646 -439 0
613 -774 -441 0
774 -613 -441 0
626 -591 -443 0
591 -626 -443 0
624 -627 -445 0
627 -624 -445 0
622 -679 -447 0
679 -622 -447 0
670 -783 -449 0
783 -670 -449 0
595 -612 -451 0
612 -595 -451 0
624 -783 -453 0
783 -624 -453 0
711 -587 -455 0
587 -711 -455 0
752 -770 -457 0
770 -752 -457 0
681 -782 -459 0
782 -681 -459 0
654 -738 -461 0
738 -654 -461 0
644 -730 -463 0
730 -644 -463 0
745 -673 -465 0
673 -745 -465 0
689 -713 -467 0
713 -689 -467 0
657 -642 -469 0
642 -657 -469 0
683 -680 -471 0
680 -683 -471 0
770 -649 -473 0
649 -770 -473 0
778 -742 -475 0
742 -778 -475 0
583 -628 -477 0
628 -583 -477 0
602 -649 -479 0
649 -602 -479 0
734 -682 -481 0
682 -734 -481 0
595 -786 -483 0
786 -595 -483 0
789 -725 -485 0
725 -789 -485 0
788 -583 -487 0
583 -788 -487 0
608 -778 -489 0
778 -608 -489 0
697 -687 -491 0
687 -697 -491 0
652 -633 -493 0
633 -652 -493 0
656 -600 -495 0
600 -656 -495 0
664 -699 -497 0
699 -664 -497 0
621 -698 -499 0
698 -621 -499 0
607 -681 -501 0
681 -607 -501 0
736 -589 -503 0
589 -736 -503 0
625 -709 -505 0
709 -625 -505 0
712 -652 -507 0
652 -712 -507 0
635 -689 -509 0
689 -635 -509 0
681 -711 -511 0
711 -681 -511 0
712 -652 -513 0
652 -712 -513 0
699 -599 -515 0
599 -699 -515 0
709 -787 -517 0
787 -709 -517 0
617 -762 -519 0
762 -617 -519 0
584 -749 -521 0
749 -584 -521 0
780 -677 -523 0
677 -780 -523 0
659 -674 -525 0
674 -659 -525 0
739 -601 -527 0
601 -739 -527 0
630 -760 -529 0
760 -630 -529 0
780 -677 -531 0
677 -780 -531 0
773 -772 -533 0
772 -773 -533 0
617 -707 -535 0
707 -617 -535 0
718 -612 -537 0
612 -718 -537 0
601 -730 -539 0
730 -601 -539 0
737 -645 -541 0
645 -737 -541 0
776 -796 -543 0
796 -776 -543 0
606 -720 -545 0
720 -606 -545 0
717 -705 -547 0
705 -717 -547 0
647 -687 -549 0
687 -647 -549 0
681 -746 -551 0
746 -681 -551 0
699 -706 -553 0
706 -699 -553 0
585 -787 -555 0
787 -585 -555 0
740 -597 -557 0
597 -740 -557 0
659 -674 -559 0
674 -659 -559 0
632 -703 -561 0
703 -632 -561 0
706 -675 -563 0
675 -706 -563 0
648 -595 -565 0
595 -648 -565 0
744 -632 -567 0
632 -744 -567 0
780 -591 -569 0
591 -780 -569 0
782 -708 -571 0
708 -782 -571 0
793 -583 -573 0
583 -793 -573 0
769 -754 -575 0
754 -769 -575 0
781 -648 -577 0
648 -781 -577 0
714 -661 -579 0
661 -714 -579 0

